2x2x2 Monkhorst-Pack grid
0
M
 2  2  2
 0  0  0
