 &CONTROL
                 calculation = 'scf',
                restart_mode = 'from_scratch' ,
                      outdir = './',
                     pseudo_dir = '/home/tadano/etc/pseudo/',
                      prefix = 'si' ,
                     tprnfor = .true. ,
 /

 &SYSTEM
                       ibrav = 1,
                  celldm(1)  = 20.406,
                         nat = 64,
                        ntyp = 1,
                     ecutwfc = 33 ,
                     occupations = 'smearing',
                    smearing = 'methfessel-paxton',
                     degauss = 0.01,
 /

 &ELECTRONS
             diagonalization = 'david' ,
             electron_maxstep= 1000,
                     conv_thr= 5.0d-11
 /

ATOMIC_SPECIES
   Si   28.0855  Si.pz-n-kjpaw_psl.0.1.UPF
ATOMIC_POSITIONS  crystal
Si 0.000000000000000 0.000000000000000 0.000000000000000
Si 0.000000000000000 0.000000000000000 0.500000000000000
Si 0.000000000000000 0.250000000000000 0.250000000000000
Si 0.000000000000000 0.250000000000000 0.750000000000000
Si 0.000000000000000 0.500000000000000 0.000000000000000
Si 0.000000000000000 0.500000000000000 0.500000000000000
Si 0.000000000000000 0.750000000000000 0.250000000000000
Si 0.000000000000000 0.750000000000000 0.750000000000000
Si 0.125000000000000 0.125000000000000 0.125000000000000
Si 0.125000000000000 0.125000000000000 0.625000000000000
Si 0.125000000000000 0.375000000000000 0.375000000000000
Si 0.125000000000000 0.375000000000000 0.875000000000000
Si 0.125000000000000 0.625000000000000 0.125000000000000
Si 0.125000000000000 0.625000000000000 0.625000000000000
Si 0.125000000000000 0.875000000000000 0.375000000000000
Si 0.125000000000000 0.875000000000000 0.875000000000000
Si 0.250000000000000 0.000000000000000 0.250000000000000
Si 0.250000000000000 0.000000000000000 0.750000000000000
Si 0.250000000000000 0.250000000000000 0.000000000000000
Si 0.250000000000000 0.250000000000000 0.500000000000000
Si 0.250000000000000 0.500000000000000 0.250000000000000
Si 0.250000000000000 0.500000000000000 0.750000000000000
Si 0.250000000000000 0.750000000000000 0.000000000000000
Si 0.250000000000000 0.750000000000000 0.500000000000000
Si 0.375000000000000 0.125000000000000 0.375000000000000
Si 0.375000000000000 0.125000000000000 0.875000000000000
Si 0.375000000000000 0.375000000000000 0.125000000000000
Si 0.375000000000000 0.375000000000000 0.625000000000000
Si 0.375000000000000 0.625000000000000 0.375000000000000
Si 0.375000000000000 0.625000000000000 0.875000000000000
Si 0.375000000000000 0.875000000000000 0.125000000000000
Si 0.375000000000000 0.875000000000000 0.625000000000000
Si 0.500000000000000 0.000000000000000 0.000000000000000
Si 0.500000000000000 0.000000000000000 0.500000000000000
Si 0.500000000000000 0.250000000000000 0.250000000000000
Si 0.500000000000000 0.250000000000000 0.750000000000000
Si 0.500000000000000 0.500000000000000 0.000000000000000
Si 0.500000000000000 0.500000000000000 0.500000000000000
Si 0.500000000000000 0.750000000000000 0.250000000000000
Si 0.500000000000000 0.750000000000000 0.750000000000000
Si 0.625000000000000 0.125000000000000 0.125000000000000
Si 0.625000000000000 0.125000000000000 0.625000000000000
Si 0.625000000000000 0.375000000000000 0.375000000000000
Si 0.625000000000000 0.375000000000000 0.875000000000000
Si 0.625000000000000 0.625000000000000 0.125000000000000
Si 0.625000000000000 0.625000000000000 0.625000000000000
Si 0.625000000000000 0.875000000000000 0.375000000000000
Si 0.625000000000000 0.875000000000000 0.875000000000000
Si 0.750000000000000 0.000000000000000 0.250000000000000
Si 0.750000000000000 0.000000000000000 0.750000000000000
Si 0.750000000000000 0.250000000000000 0.000000000000000
Si 0.750000000000000 0.250000000000000 0.500000000000000
Si 0.750000000000000 0.500000000000000 0.250000000000000
Si 0.750000000000000 0.500000000000000 0.750000000000000
Si 0.750000000000000 0.750000000000000 0.000000000000000
Si 0.750000000000000 0.750000000000000 0.500000000000000
Si 0.875000000000000 0.125000000000000 0.375000000000000
Si 0.875000000000000 0.125000000000000 0.875000000000000
Si 0.875000000000000 0.375000000000000 0.125000000000000
Si 0.875000000000000 0.375000000000000 0.625000000000000
Si 0.875000000000000 0.625000000000000 0.375000000000000
Si 0.875000000000000 0.625000000000000 0.875000000000000
Si 0.875000000000000 0.875000000000000 0.125000000000000
Si 0.875000000000000 0.875000000000000 0.625000000000000

K_POINTS automatic
4 4 4 1 1 1
