Pm-3m (221) SrTiO3
3.896
    1.0 0.0 0.0
    0.0 1.0 0.0
    0.0 0.0 1.0
Sr Ti O 
 1  1  3 
Direct
    0.00000000000000     0.00000000000000     0.00000000000000 
    0.50000000000000     0.50000000000000     0.50000000000000 
    0.00000000000000     0.50000000000000     0.50000000000000 
    0.50000000000000     0.00000000000000     0.50000000000000 
    0.50000000000000     0.50000000000000     0.00000000000000 
