Te64 Pb64
1.000
     0.0000000000000    12.9000000000000    12.9000000000000
    12.9000000000000     0.0000000000000    12.9000000000000
    12.9000000000000    12.9000000000000     0.0000000000000
Pb Te 
64 64 
Direct
    0.00000000000000     0.00000000000000     0.00000000000000
    0.00000000000000     1.00000000000000     0.25000000000000
    0.00000000000000     1.00000000000000     0.50000000000000
    0.00000000000000     1.00000000000000     0.75000000000000
    0.00000000000000     0.25000000000000     1.00000000000000
    0.00000000000000     0.25000000000000     0.25000000000000
    0.00000000000000     0.25000000000000     0.50000000000000
    0.00000000000000     0.25000000000000     0.75000000000000
    0.00000000000000     0.50000000000000     1.00000000000000
    0.00000000000000     0.50000000000000     0.25000000000000
    0.00000000000000     0.50000000000000     0.50000000000000
    0.00000000000000     0.50000000000000     0.75000000000000
    0.00000000000000     0.75000000000000     1.00000000000000
    0.00000000000000     0.75000000000000     0.25000000000000
    0.00000000000000     0.75000000000000     0.50000000000000
    0.00000000000000     0.75000000000000     0.75000000000000
    0.25000000000000     0.00000000000000     1.00000000000000
    0.25000000000000     0.00000000000000     0.25000000000000
    0.25000000000000     1.00000000000000     0.50000000000000
    0.25000000000000     0.00000000000000     0.75000000000000
    0.25000000000000     0.25000000000000     1.00000000000000
    0.25000000000000     0.25000000000000     0.25000000000000
    0.25000000000000     0.25000000000000     0.50000000000000
    0.25000000000000     0.25000000000000     0.75000000000000
    0.25000000000000     0.50000000000000     1.00000000000000
    0.25000000000000     0.50000000000000     0.25000000000000
    0.25000000000000     0.50000000000000     0.50000000000000
    0.25000000000000     0.50000000000000     0.75000000000000
    0.25000000000000     0.75000000000000     1.00000000000000
    0.25000000000000     0.75000000000000     0.25000000000000
    0.25000000000000     0.75000000000000     0.50000000000000
    0.25000000000000     0.75000000000000     0.75000000000000
    0.50000000000000     0.00000000000000     1.00000000000000
    0.50000000000000     0.00000000000000     0.25000000000000
    0.50000000000000     0.00000000000000     0.50000000000000
    0.50000000000000     0.00000000000000     0.75000000000000
    0.50000000000000     0.25000000000000     1.00000000000000
    0.50000000000000     0.25000000000000     0.25000000000000
    0.50000000000000     0.25000000000000     0.50000000000000
    0.50000000000000     0.25000000000000     0.75000000000000
    0.50000000000000     0.50000000000000     1.00000000000000
    0.50000000000000     0.50000000000000     0.25000000000000
    0.50000000000000     0.50000000000000     0.50000000000000
    0.50000000000000     0.50000000000000     0.75000000000000
    0.50000000000000     0.75000000000000     0.00000000000000
    0.50000000000000     0.75000000000000     0.25000000000000
    0.50000000000000     0.75000000000000     0.50000000000000
    0.50000000000000     0.75000000000000     0.75000000000000
    0.75000000000000     0.00000000000000     1.00000000000000
    0.75000000000000     0.00000000000000     0.25000000000000
    0.75000000000000     0.00000000000000     0.50000000000000
    0.75000000000000     1.00000000000000     0.75000000000000
    0.75000000000000     0.25000000000000     1.00000000000000
    0.75000000000000     0.25000000000000     0.25000000000000
    0.75000000000000     0.25000000000000     0.50000000000000
    0.75000000000000     0.25000000000000     0.75000000000000
    0.75000000000000     0.50000000000000     0.00000000000000
    0.75000000000000     0.50000000000000     0.25000000000000
    0.75000000000000     0.50000000000000     0.50000000000000
    0.75000000000000     0.50000000000000     0.75000000000000
    0.75000000000000     0.75000000000000     1.00000000000000
    0.75000000000000     0.75000000000000     0.25000000000000
    0.75000000000000     0.75000000000000     0.50000000000000
    0.75000000000000     0.75000000000000     0.75000000000000
    0.12500000000000     0.12500000000000     0.12500000000000
    0.12500000000000     0.12500000000000     0.37500000000000
    0.12500000000000     0.12500000000000     0.62500000000000
    0.12500000000000     0.12500000000000     0.87500000000000
    0.12500000000000     0.37500000000000     0.12500000000000
    0.12500000000000     0.37500000000000     0.37500000000000
    0.12500000000000     0.37500000000000     0.62500000000000
    0.12500000000000     0.37500000000000     0.87500000000000
    0.12500000000000     0.62500000000000     0.12500000000000
    0.12500000000000     0.62500000000000     0.37500000000000
    0.12500000000000     0.62500000000000     0.62500000000000
    0.12500000000000     0.62500000000000     0.87500000000000
    0.12500000000000     0.87500000000000     0.12500000000000
    0.12500000000000     0.87500000000000     0.37500000000000
    0.12500000000000     0.87500000000000     0.62500000000000
    0.12500000000000     0.87500000000000     0.87500000000000
    0.37500000000000     0.12500000000000     0.12500000000000
    0.37500000000000     0.12500000000000     0.37500000000000
    0.37500000000000     0.12500000000000     0.62500000000000
    0.37500000000000     0.12500000000000     0.87500000000000
    0.37500000000000     0.37500000000000     0.12500000000000
    0.37500000000000     0.37500000000000     0.37500000000000
    0.37500000000000     0.37500000000000     0.62500000000000
    0.37500000000000     0.37500000000000     0.87500000000000
    0.37500000000000     0.62500000000000     0.12500000000000
    0.37500000000000     0.62500000000000     0.37500000000000
    0.37500000000000     0.62500000000000     0.62500000000000
    0.37500000000000     0.62500000000000     0.87500000000000
    0.37500000000000     0.87500000000000     0.12500000000000
    0.37500000000000     0.87500000000000     0.37500000000000
    0.37500000000000     0.87500000000000     0.62500000000000
    0.37500000000000     0.87500000000000     0.87500000000000
    0.62500000000000     0.12500000000000     0.12500000000000
    0.62500000000000     0.12500000000000     0.37500000000000
    0.62500000000000     0.12500000000000     0.62500000000000
    0.62500000000000     0.12500000000000     0.87500000000000
    0.62500000000000     0.37500000000000     0.12500000000000
    0.62500000000000     0.37500000000000     0.37500000000000
    0.62500000000000     0.37500000000000     0.62500000000000
    0.62500000000000     0.37500000000000     0.87500000000000
    0.62500000000000     0.62500000000000     0.12500000000000
    0.62500000000000     0.62500000000000     0.37500000000000
    0.62500000000000     0.62500000000000     0.62500000000000
    0.62500000000000     0.62500000000000     0.87500000000000
    0.62500000000000     0.87500000000000     0.12500000000000
    0.62500000000000     0.87500000000000     0.37500000000000
    0.62500000000000     0.87500000000000     0.62500000000000
    0.62500000000000     0.87500000000000     0.87500000000000
    0.87500000000000     0.12500000000000     0.12500000000000
    0.87500000000000     0.12500000000000     0.37500000000000
    0.87500000000000     0.12500000000000     0.62500000000000
    0.87500000000000     0.12500000000000     0.87500000000000
    0.87500000000000     0.37500000000000     0.12500000000000
    0.87500000000000     0.37500000000000     0.37500000000000
    0.87500000000000     0.37500000000000     0.62500000000000
    0.87500000000000     0.37500000000000     0.87500000000000
    0.87500000000000     0.62500000000000     0.12500000000000
    0.87500000000000     0.62500000000000     0.37500000000000
    0.87500000000000     0.62500000000000     0.62500000000000
    0.87500000000000     0.62500000000000     0.87500000000000
    0.87500000000000     0.87500000000000     0.12500000000000
    0.87500000000000     0.87500000000000     0.37500000000000
    0.87500000000000     0.87500000000000     0.62500000000000
    0.87500000000000     0.87500000000000     0.87500000000000
