Si 222 supercell
  5.431     
    0.0 0.5 0.5
    0.5 0.0 0.5
    0.5 0.5 0.0
  Si
  2
Direct
  0.000 0.000 0.000   
  0.250 0.250 0.250
 