4x4x4 Monkhorst-Pack grid
0
M
 4  4  4
 0  0  0
